Route #1: 126 4 136 115 116 17 78 2 93 40 70 124 9 109 36 25 118 128 127 84 68 13
Route #2: 59 135 58 67 101 66 57 95 139 21 62 100 11 74 81 47 96 33 125 123 82 137 55
Route #3: 85 35 91 56 83 142 23 132 104 28 133 90 44 64 61 45 65 89 12 54
Route #4: 18 122 77 141 140 112 63 103 38 27 106 24 117 108 92 134 34 30 46
Route #5: 48 107 87 121 138 105 129 76 3 113 10 94 75 26 131 69 39 42 29 80 119 22 37 14 15
Route #6: 41 86 8 43 114 110 53 102 6 31 98 79 60 72 111 1 5 52 20 99 88 73 51
Route #7: 16 32 7 19 97 120 49 50 71 130
Cost 18616
